0 103 
1 104 
2 102 
3 99 
4 97 
5 95 
6 96 
7 93 
8 92 
9 90 
10 92 
11 91 
12 88 
13 84 
14 88 
15 86 
16 90 
17 87 
18 84 
19 81 
20 79 
21 75 
22 73 
23 74 
24 72 
25 70 
26 70 
27 70 
28 69 
29 69 
30 68 
31 66 
32 63 
33 60 
34 59 
35 61 
36 61 
37 60 
38 60 
39 59 
40 54 
41 54 
42 50 
43 54 
44 56 
45 53 
46 53 
47 53 
48 55 
49 52 
50 48 
51 46 
52 43 
53 39 
54 37 
55 36 
56 33 
57 31 
58 30 
59 28 
60 26 
61 28 
62 28 
63 25 
64 24 
65 22 
66 23 
67 22 
68 21 
69 20 
70 16 
71 13 
72 11 
73 9 
74 7 
75 4 
76 2 
77 2 
78 1 
79 3 
80 3 
81 3 
82 2 
83 2 
84 1 
85 0 
86 0 

